495 494 524 525 493 492 491 526 523 521 522 514 515 516 513 509 510 511 512 527 528 529 490 486 487 535 536 538 540 539 537 484 485 483 482 481 480 479 478 477 476 475 567 474 473 472 471 470 469 468 467 466 465 464 496 497 500 499 452 453 440 441 450 449 448 447 446 442 443 444 445 381 380 379 378 377 376 375 395 396 371 394 393 391 392 390 389 388 387 385 409 408 405 406 407 397 398 399 400 404 403 401 402 356 412 411 410 418 417 419 420 421 422 384 383 386 382 425 424 423 426 427 428 429 431 430 432 433 434 435 437 438 436 439 454 455 456 457 458 459 461 462 463 460 571 572 573 0 1 2 3 4 5 6 7 8 9 10 11 14 15 16 17 18 570 569 568 19 20 21 13 12 23 22 24 25 26 27 28 29 31 30 32 36 37 38 33 34 35 40 41 39 42 43 44 45 46 47 48 49 50 84 51 52 54 53 55 56 83 82 85 86 87 88 89 90 93 92 91 555 556 557 558 559 550 560 561 562 563 565 566 564 549 548 551 101 102 100 99 552 553 554 98 97 94 96 95 118 119 120 121 122 123 71 72 73 74 75 77 78 62 79 80 81 57 58 59 60 61 63 64 76 65 66 67 68 70 69 124 125 126 127 128 129 130 131 132 133 134 135 136 137 138 139 140 141 151 150 149 152 148 147 142 143 144 146 145 158 157 153 154 155 156 159 160 113 161 162 168 169 171 170 172 108 109 110 111 112 114 115 116 117 106 105 104 103 547 546 545 544 543 541 542 107 173 174 175 176 177 178 187 188 186 182 179 180 181 183 185 184 194 195 196 197 198 199 200 166 167 163 164 165 201 202 204 203 208 207 206 205 209 210 211 212 213 214 215 216 217 223 224 222 221 220 218 219 193 192 191 190 226 225 189 227 228 229 230 231 533 534 488 489 532 531 530 233 232 234 235 236 237 240 239 238 246 247 245 244 243 242 241 248 249 250 251 252 254 253 255 256 257 300 258 259 260 261 262 263 264 265 299 298 266 267 271 272 273 274 275 276 277 290 289 288 278 279 282 281 280 287 286 285 284 283 334 335 336 337 338 339 341 340 333 332 331 330 291 292 269 268 270 293 294 295 296 297 319 306 304 303 301 302 508 507 506 307 305 318 317 320 321 322 323 324 325 326 327 328 329 366 342 343 344 345 346 347 348 349 350 351 415 416 414 413 352 353 354 355 357 358 359 360 361 362 363 364 365 367 368 369 370 372 373 374 315 314 316 313 312 451 311 310 309 308 505 504 503 502 501 498 517 520 519 518